25
81.63 48.44
3.39 4.16
56.14 14.7
84.52 34.32
1.91 25.21
43.26 28.07
32.5 14.56
32.86 45.61
60.34 35.36
31.13 7.09
22.04 26.83
16.52 23.41
17.06 23.41
17.61 23.41
18.15 23.41
18.69 23.41
18.69 25.46
18.69 27.5
18.69 29.55
18.69 31.59
18.15 31.59
17.6 31.59
17.06 31.59
16.52 31.59
16.52 29.55
